(set-logic QF_S)
(declare-fun var0 () String)
(declare-fun var1 () Int)
(declare-fun var2 () Bool)
(declare-fun var3 () String)
(declare-fun var4 () Int)
(declare-fun var5 () Bool)
(declare-fun var6 () String)
(declare-fun var7 () Int)
(declare-fun var8 () Bool)
(assert (< (str.indexof var0 var0 var4) (str.len (str.substr var0 var4 var1))))
(assert (>= (str.indexof "F<dFT%\\~gN" var0 var4) (str.indexof "[HOJYz0F(J" var0 var1)))
(assert (str.prefixof (str.substr "k2c%N*/s[U" var7 var1) (str.substr (str.at var0 var1) (str.len var6) (str.indexof var6 var3 var4))))
(assert (str.in.re (str.replace (str.substr var0 var1 var4) (str.substr var6 (str.len var0) (str.indexof var3 var0 var4)) (str.substr var0 var1 var7)) (re.* (re.* re.allchar))))
(check-sat)